minizinc/perfect_square_placement_problems/5.dzn
% Data for perfect square placement problem:
% http://www.hakank.org/minizinc/perfect_square_placement.mzn
% Data is originally from CSPLib:
% http://www.cs.st-andrews.ac.uk/~ianm/CSPLib/prob/prob009/results

% problem 5 
n = 147;
size = 22;
a = [1,3,4,5,8,9,17,20,21,23,25,26,29,31,32,40,43,44,47,48,52,55];

